data/solutions/recovery/wellformed/intermediate/binding/wellformed_intermediate_instance68/65.sol
Elapsed time: 0.49
Upper bound: 29115.0
Planning weighted value: 468620031.0
C[0]=29115.0
C[1]=29076.0
C[2]=28916.0
C[3]=28865.0
C[4]=28817.0
C[5]=28751.0
C[6]=28674.0
C[7]=28367.0
C[8]=27283.0
C[9]=27070.0
C[10]=26814.0
C[11]=25862.0
C[12]=24375.0
C[13]=23586.0
y[0]=7
y[1]=7
y[2]=5
y[3]=7
y[4]=7
y[5]=1
y[6]=0
y[7]=7
y[8]=12
y[9]=0
y[10]=13
y[11]=3
y[12]=12
y[13]=6
y[14]=5
y[15]=7
y[16]=13
y[17]=2
y[18]=9
y[19]=3
y[20]=8
y[21]=9
y[22]=6
y[23]=7
y[24]=8
y[25]=3
y[26]=11
y[27]=5
y[28]=9
y[29]=5
y[30]=11
y[31]=7
y[32]=2
y[33]=5
y[34]=10
y[35]=11
y[36]=5
y[37]=6
y[38]=10
y[39]=4
y[40]=1
y[41]=10
y[42]=0
y[43]=6
y[44]=10
y[45]=0
y[46]=9
y[47]=9
y[48]=13
y[49]=12
y[50]=13
y[51]=12
y[52]=8
y[53]=0
y[54]=7
y[55]=10
y[56]=13
y[57]=9
y[58]=2
y[59]=4
y[60]=0
y[61]=8
y[62]=9
y[63]=6
y[64]=11
y[65]=5
y[66]=3
y[67]=3
y[68]=0
y[69]=12
y[70]=2
y[71]=7
y[72]=4
y[73]=10
y[74]=11
y[75]=0
y[76]=3
y[77]=2
y[78]=6
y[79]=10
y[80]=4
y[81]=8
y[82]=9
y[83]=13
y[84]=1
y[85]=0
y[86]=10
y[87]=6
y[88]=3
y[89]=9
y[90]=6
y[91]=5
y[92]=7
y[93]=1
y[94]=12
y[95]=0
y[96]=6
y[97]=8
y[98]=5
y[99]=5
y[100]=1
y[101]=13
y[102]=0
y[103]=8
y[104]=12
y[105]=3
y[106]=11
y[107]=8
y[108]=2
y[109]=13
y[110]=7
y[111]=11
y[112]=1
y[113]=10
y[114]=12
y[115]=13
y[116]=10
y[117]=12
y[118]=4
y[119]=2
y[120]=11
y[121]=5
y[122]=1
y[123]=1
y[124]=0
y[125]=4
y[126]=1
y[127]=7
y[128]=7
y[129]=8
y[130]=13
y[131]=10
y[132]=0
y[133]=2
y[134]=11
y[135]=0
y[136]=9
y[137]=8
y[138]=3
y[139]=12
y[140]=8
y[141]=6
y[142]=11
y[143]=3
y[144]=11
y[145]=5
y[146]=4
y[147]=4
y[148]=0
y[149]=10
y[150]=9
y[151]=3
y[152]=13
y[153]=11
y[154]=3
y[155]=5
y[156]=0
y[157]=7
y[158]=12
y[159]=9
y[160]=10
y[161]=10
y[162]=11
y[163]=12
y[164]=3
y[165]=13
y[166]=0
y[167]=1
y[168]=0
y[169]=2
y[170]=9
y[171]=12
y[172]=8
y[173]=12
y[174]=12
y[175]=2
y[176]=1
y[177]=8
y[178]=4
y[179]=6
y[180]=3
y[181]=3
y[182]=2
y[183]=2
y[184]=12
y[185]=6
y[186]=10
y[187]=13
y[188]=12
y[189]=6
y[190]=9
y[191]=7
y[192]=3
y[193]=7
y[194]=13
y[195]=10
y[196]=7
y[197]=8
y[198]=0
y[199]=7
y[200]=1
y[201]=13
y[202]=8
y[203]=4
y[204]=1
y[205]=4
y[206]=1
y[207]=4
y[208]=5
y[209]=12
y[210]=10
y[211]=12
y[212]=10
y[213]=12
y[214]=0
y[215]=2
y[216]=6
y[217]=11
y[218]=4
y[219]=9
y[220]=6
y[221]=0
y[222]=9
y[223]=1
y[224]=13
y[225]=3
y[226]=8
y[227]=1
y[228]=12
y[229]=2
y[230]=4
y[231]=7
y[232]=8
y[233]=11
y[234]=13
y[235]=13
y[236]=8
y[237]=9
y[238]=13
y[239]=6
y[240]=11
y[241]=3
y[242]=9
y[243]=1
y[244]=12
y[245]=2
y[246]=12
y[247]=4
y[248]=7
y[249]=12
y[250]=10
y[251]=5
y[252]=11
y[253]=8
y[254]=11
y[255]=2
y[256]=11
y[257]=10
y[258]=11
y[259]=3
y[260]=5
y[261]=4
y[262]=12
y[263]=12
y[264]=5
y[265]=2
y[266]=12
y[267]=8
y[268]=12
y[269]=3
y[270]=2
y[271]=11
y[272]=4
y[273]=0
y[274]=5
y[275]=8
y[276]=7
y[277]=8
y[278]=1
y[279]=12
y[280]=1
y[281]=7
y[282]=3
y[283]=6
y[284]=3
y[285]=1
y[286]=5
y[287]=11
y[288]=6
y[289]=4
y[290]=3
y[291]=2
y[292]=9
y[293]=12
y[294]=2
y[295]=1
y[296]=0
y[297]=5
y[298]=4
y[299]=7
y[300]=12
y[301]=6
y[302]=6
y[303]=8
y[304]=9
y[305]=12
y[306]=11
y[307]=9
y[308]=4
y[309]=12
y[310]=6
y[311]=4
y[312]=6
y[313]=12
y[314]=1
y[315]=13
y[316]=12
y[317]=11
y[318]=1
y[319]=13
y[320]=2
y[321]=7
y[322]=12
y[323]=5
y[324]=12
y[325]=3
y[326]=8
y[327]=6
y[328]=1
y[329]=0
y[330]=7
y[331]=12
y[332]=11
y[333]=11
y[334]=4
y[335]=1
y[336]=0
y[337]=0
y[338]=8
y[339]=2
y[340]=4
y[341]=2
y[342]=12
y[343]=13
y[344]=11
y[345]=8
y[346]=9
y[347]=12
y[348]=6
y[349]=11
y[350]=9
y[351]=12
y[352]=2
y[353]=6
y[354]=10
y[355]=12
y[356]=12
y[357]=5
y[358]=10
y[359]=0
y[360]=11
y[361]=2
y[362]=2
y[363]=1
y[364]=4
y[365]=12
y[366]=7
y[367]=13
y[368]=0
y[369]=13
y[370]=8
y[371]=9
y[372]=0
y[373]=0
y[374]=1
y[375]=2
y[376]=13
y[377]=5
y[378]=10
y[379]=3
y[380]=4
y[381]=13
y[382]=4
y[383]=7
y[384]=6
y[385]=7
y[386]=1
y[387]=1
y[388]=10
y[389]=10
y[390]=12
y[391]=12
y[392]=1
y[393]=10
y[394]=8
y[395]=9
y[396]=6
y[397]=12
y[398]=5
y[399]=7
y[400]=2
y[401]=8
y[402]=2
y[403]=5
y[404]=6
y[405]=5
y[406]=10
y[407]=1
y[408]=2
y[409]=5
y[410]=6
y[411]=9
y[412]=1
y[413]=5
y[414]=4
y[415]=11
y[416]=13
y[417]=9
y[418]=13
y[419]=12
y[420]=7
y[421]=3
